20
10
109861
0
0
38 37 39 34 38 39 38 41 37 37
1
0
39 40 41 41 44 44 39 46 39 43
2
0
57 57 61 61 59 61 56 59 61 56
3
0
49 52 50 53 50 51 51 49 49 51
4
0
64 58 68 68 61 62 66 63 68 60
5
0
47 47 47 42 43 44 46 46 42 40
6
0
40 41 40 38 39 41 39 40 36 42
7
0
67 68 69 68 65 65 70 68 72 68
8
0
47 50 47 48 47 48 47 50 47 46
9
0
41 42 43 43 41 41 39 42 37 39
10
0
61 61 60 56 62 62 57 57 58 62
11
0
31 26 30 31 31 32 28 29 30 29
12
0
42 35 42 41 40 39 41 38 41 40
13
0
46 49 45 50 46 48 47 51 47 46
14
0
50 51 53 49 52 50 51 48 49 49
15
0
48 50 49 43 47 47 49 48 47 52
16
0
57 51 55 54 56 52 56 54 55 55
17
0
45 44 41 43 47 42 44 46 42 46
18
0
57 62 59 57 62 57 58 62 60 58
19
0
38 45 45 43 42 39 40 40 41 39
